data/benchmarks/bayes/90-12-2-q.cnf
p cnf 672 589
c weights 0.191998 0.808002 1 1 1 1 1 1 1 1 1 1 1 1 1 1 1 1 1 1 1 1 1 1 1 1 1 1 1 1 1 1 1 1 1 1 1 1 1 1 1 1 1 1 1 1 1 1 1 1 1 1 1 1 1 1 1 1 1 1 1 1 1 1 1 1 1 1 1 1 1 1 1 1 1 1 1 1 1 1 1 1 1 1 1 1 1 1 1 1 1 1 1 1 1 1 1 1 1 1 1 1 1 1 1 1 1 1 1 1 1 1 1 1 1 1 1 1 1 1 1 1 1 1 1 1 1 1 1 1 1 1 1 1 1 1 1 1 1 1 1 1 1 1 1 1 1 1 1 1 1 1 1 1 1 1 1 1 1 1 1 1 1 1 1 1 1 1 1 1 1 1 1 1 1 1 1 1 1 1 1 1 1 1 1 1 1 1 1 1 1 1 1 1 1 1 1 1 1 1 1 1 1 1 1 1 1 1 1 1 1 1 1 1 1 1 1 1 1 1 1 1 1 1 1 1 1 1 1 1 1 1 1 1 1 1 1 1 1 1 1 1 1 1 1 1 1 1 1 1 1 1 1 1 1 1 1 1 1 1 1 1 1 1 1 1 1 1 1 1 1 1 1 1 1 1 1 1 1 1 1 1 1 1 1 1 1 1 0.5 0.5 0.5 0.5 0.5 0.5 0.5 0.5 0.5 0.5 0.5 0.5 0.5 0.5 0.5 0.5 0.5 0.5 0.5 0.5 0.5 0.5 0.5 0.5 0.5 0.5 0.5 0.5 0.5 0.5 0.5 0.5 0.5 0.5 0.5 0.5 0.622321 0.377679 0.871968 0.12803200000000003 0.5 0.5 0.5 0.5 0.5 0.5 0.5 0.5 0.5 0.5 0.5 0.5 0.5 0.5 0.5 0.5 0.5 0.5 0.5 0.5 0.5 0.5 0.5 0.5 0.5 0.5 0.5 0.5 0.5 0.5 0.5 0.5 0.5 0.5 0.5 0.5 0.5 0.5 0.5 0.5 0.5 0.5 0.5 0.5 0.5 0.5 0.5 0.5 0.5 0.5 0.5 0.5 0.5 0.5 0.5 0.5 0.068318 0.931682 0.245382 0.754618 0.307235 0.6927650000000001 0.403073 0.596927 0.5 0.5 0.5 0.5 0.5 0.5 0.5 0.5 0.5 0.5 0.5 0.5 0.5 0.5 0.5 0.5 0.5 0.5 0.5 0.5 0.5 0.5 0.5 0.5 0.5 0.5 0.5 0.5 0.5 0.5 0.5 0.5 0.5 0.5 0.5 0.5 0.5 0.5 0.5 0.5 0.5 0.5 0.5 0.5 0.5 0.5 0.5 0.5 0.5 0.5 0.5 0.5 0.5 0.5 0.5 0.5 0.5 0.5 0.5 0.5 0.5 0.5 0.5 0.5 0.5 0.5 0.5 0.5 0.5 0.5 0.5 0.5 0.5 0.5 0.5 0.5 0.5 0.5 0.5 0.5 0.5 0.5 0.5 0.5 0.5 0.5 0.5 0.5 0.5 0.5 0.5 0.5 0.0695598 0.9304402 0.510496 0.48950400000000005 0.638974 0.36102599999999996 0.364814 0.635186 0.5 0.5 0.5 0.5 0.5 0.5 0.5 0.5 0.5 0.5 0.5 0.5 0.5 0.5 0.5 0.5 0.5 0.5 0.5 0.5 0.5 0.5 0.5 0.5 0.5 0.5 0.5 0.5 0.5 0.5 0.5 0.5 0.5 0.5 0.5 0.5 0.5 0.5 0.5 0.5 0.5 0.5 0.5 0.5 0.5 0.5 0.5 0.5 0.5 0.5 0.5 0.5 0.5 0.5 0.5 0.5 0.5 0.5 0.5 0.5 0.5 0.5 0.5 0.5 0.5 0.5 0.5 0.5 0.5 0.5 0.5 0.5 0.5 0.5 0.5 0.5 0.5 0.5 0.5 0.5 0.5 0.5 0.5 0.5 0.5 0.5 0.5 0.5 0.5 0.5 0.5 0.5 0.5 0.5 0.5 0.5 0.5 0.5 0.5 0.5 0.881924 0.11807599999999996 0.899137 0.10086300000000004 0.477309 0.522691 0.504107 0.49589300000000003 0.5 0.5 0.5 0.5 0.5 0.5 0.5 0.5 0.5 0.5 0.5 0.5 0.5 0.5 0.5 0.5 0.5 0.5 0.5 0.5 0.5 0.5 0.5 0.5 0.5 0.5 0.5 0.5 0.5 0.5 0.5 0.5 0.5 0.5 0.5 0.5 0.5 0.5 0.5 0.5 0.5 0.5 0.5 0.5 0.5 0.5 0.5 0.5 0.5 0.5 0.5 0.5 0.5 0.5 0.5 0.5 0.5 0.5 0.5 0.5 0.5 0.5 0.5 0.5 0.5 0.5 0.5 0.5 0.5 0.5 0.5 0.5 0.5 0.5 0.5 0.5 0.5 0.5 0.5 0.5 0.5 0.5 0.5 0.5 0.5 0.5 0.5 0.5 0.5 0.5 0.5 0.5 0.5 0.5 0.5 0.5 0.5 0.5 0.5 0.5 0.5 0.5 0.5 0.5 0.5 0.5 0.5 0.5 0.5 0.5 0.5 0.5 0.5 0.5 0.5 0.5 0.5 0.5 0.5 0.5 0.5 0.5 0.5 0.5 0.5 0.5 0.5 0.5 0.5 0.5 0.5 0.5 0.5 0.5 0.5 0.5 0.5 0.5 0.5 0.5 0.5 0.5 0.5 0.5 0.5 0.5 0.5 0.5 0.5 0.5 0.5 0.5 0.5 0.5 0.5 0.5 0.5 0.5 0.5 0.5 0.5 0.5 0.5 0.5 0.5 0.5 0.5 0.5 0.5 0.5 0.5 0.5 0.5 0.5 0.5 0.5 0.5 0.5 0.5 0.5 0.5 0.5 0.5 0.5 0.5 0.5 0.5 0.5 0.5 0.5 0.5 0.5 0.5 0.5 0.5 0.5 0.5 0.5 0.5 0.5 0.5 0.5 0.5 0.5 0.5 0.5 0.5 0.5 0.5 0.5 0.5 0.5 0.5 0.5 0.5 0.5 0.5 0.5 0.5 0.5 0.5 0.5 0.5 0.5 0.5 0.5 0.5 0.5 0.5 0.5 0.5 0.5 0.5 0.5 0.5 0.5 0.5 0.5 0.5 0.5 0.5 0.5 0.5 0.5 0.5 0.5 0.5 0.5 0.5 0.5 0.5 0.5 0.5 0.5 0.5 0.5 0.5 0.5 0.5 0.5 0.137596 0.862404 0.127826 0.872174 0.0668767 0.9331233 0.6008 0.3992 0.5 0.5 0.5 0.5 0.5 0.5 0.5 0.5 0.5 0.5 0.5 0.5 0.5 0.5 0.5 0.5 0.5 0.5 0.5 0.5 0.5 0.5 0.5 0.5 0.5 0.5 0.5 0.5 0.5 0.5 0.5 0.5 0.5 0.5 0.5 0.5 0.5 0.5 0.5 0.5 0.5 0.5 0.5 0.5 0.5 0.5 0.5 0.5 0.5 0.5 0.5 0.5 0.5 0.5 0.5 0.5 0.5 0.5 0.5 0.5 0.5 0.5 0.5 0.5 0.5 0.5 0.5 0.5 0.5 0.5 0.5 0.5 0.5 0.5 0.5 0.5 0.5 0.5 0.5 0.5 0.5 0.5 0.5 0.5 0.5 0.5 0.5 0.5 0.5 0.5 0.5 0.5 0.5 0.5 0.5 0.5 0.5 0.5 0.5 0.5 0.5 0.5 0.5 0.5 0.5 0.5 0.5 0.5 0.5 0.5 0.5 0.5 0.389484 0.6105160000000001 0.769374 0.230626 0.533318 0.46668200000000004 0.515531 0.48446900000000004 0.5 0.5 0.5 0.5 0.5 0.5 0.5 0.5 0.5 0.5 0.5 0.5 0.5 0.5 0.5 0.5 0.5 0.5 0.5 0.5 0.5 0.5 0.5 0.5 0.5 0.5 0.5 0.5 0.5 0.5 0.5 0.5 0.192466 0.807534 0.650502 0.349498 0.9993 0.0007000000000000339 0.77948 0.22052000000000005 0.94869 0.05130999999999997 0.168964 0.831036 0.703848 0.29615199999999997 0.482008 0.517992 0.5 0.5 0.5 0.5 0.5 0.5 0.5 0.5 0.5 0.5 0.5 0.5 0.5 0.5 0.5 0.5 0.0656061 0.9343939 0.487866 0.512134 0.220665 0.779335 0.339572 0.660428 0.5 0.5 0.5 0.5 0.5 0.5 0.5 0.5 0.5 0.5 0.5 0.5 0.5 0.5 0.5 0.5 0.5 0.5 0.5 0.5 0.5 0.5 0.5 0.5 0.5 0.5 0.5 0.5 0.0523481 0.9476519 0.83508 0.16491999999999996 0.427824 0.572176 0.376064 0.623936 0.5 0.5 0.5 0.5 0.5 0.5 0.5 0.5 0.5 0.5 0.5 0.5 0.5 0.5 0.5 0.5 0.5 0.5 0.5 0.5 0.5 0.5 0.5 0.5 0.5 0.5 0.5 0.5 0.5 0.5 0.5 0.5 0.5 0.5 0.5 0.5 0.5 0.5 0.5 0.5 0.5 0.5 0.5 0.5 0.5 0.5 0.5 0.5 0.5 0.5 0.5 0.5 0.5 0.5 0.5 0.5 0.5 0.5 0.5 0.5 0.5 0.5 0.5 0.5 0.96959 0.030410000000000048 0.192704 0.807296 0.5 0.5 0.5 0.5 0.5 0.5 0.5 0.5 0.5 0.5 0.5 0.5 0.5 0.5 0.5 0.5 0.5 0.5 0.5 0.5 0.5 0.5 0.5 0.5 0.931899 0.06810099999999997 0.331339 0.668661 0.37468 0.62532 0.982603 0.017396999999999996 0.892152 0.10784800000000005 0.0381732 0.9618268 0.572526 0.427474 0.973849 0.026151000000000035 0.5 0.5 0.5 0.5 0.5 0.5 0.5 0.5 0.293104 0.706896 0.768806 0.231194 0.171127 0.828873 0.000933653 0.999066347 0.5 0.5 0.5 0.5 0.5 0.5 0.5 0.5 0.5 0.5 0.5 0.5 0.5 0.5 0.5 0.5 0.5 0.5 0.5 0.5 0.5 0.5 0.5 0.5 0.5 0.5 0.5 0.5 0.5 0.5 0.5 0.5 0.5 0.5 0.5 0.5 0.5 0.5 0.5 0.5 0.5 0.5 0.5 0.5 0.734447 0.26555300000000004 0.468332 0.531668 0.924315 0.075685 0.0085339 0.9914661 0.5 0.5 0.5 0.5 0.5 0.5 0.5 0.5 0.5 0.5 0.5 0.5 0.5 0.5 0.5 0.5 0.5 0.5 0.5 0.5 0.5 0.5 0.5 0.5 0.5 0.5 0.5 0.5 0.5 0.5 0.5 0.5 0.5 0.5 0.5 0.5 0.5 0.5 0.5 0.5 0.5 0.5 0.5 0.5 0.5 0.5 0.5 0.5 0.131664 0.868336 0.789366 0.210634 0.89383 0.10616999999999999 0.735712 0.26428799999999997 0.5 0.5 0.5 0.5 0.5 0.5 0.5 0.5 0.5 0.5 0.5 0.5 0.5 0.5 0.5 0.5
-1 2 0
1 -2 0
-2 -3 0
2 3 0
-3 4 0
3 -4 0
-4 -5 0
4 5 0
-5 -6 0
5 6 0
-6 -7 0
6 7 0
-7 8 0
7 -8 0
-8 -9 0
8 9 0
-9 10 0
9 -10 0
-10 -163 11 0
-10 163 -11 0
10 -164 11 0
10 164 -11 0
-11 -12 0
11 12 0
-1 13 0
1 -13 0
-13 -2 14 0
-13 2 14 0
13 -2 -14 0
13 2 -14 0
-14 -3 -15 0
-14 3 15 0
14 -3 -15 0
14 3 -15 0
-15 -4 -16 0
-15 4 -16 0
15 -4 -16 0
15 4 16 0
-16 -5 -17 0
-16 5 17 0
16 -5 17 0
16 5 17 0
-17 -6 18 0
-17 6 -18 0
17 -6 18 0
17 6 18 0
-18 -7 -19 0
-18 7 -19 0
18 -7 -19 0
18 7 19 0
-19 -8 -193 20 0
-19 -8 193 -20 0
-19 8 -194 20 0
-19 8 194 -20 0
19 -8 -195 20 0
19 -8 195 -20 0
19 8 -196 20 0
19 8 196 -20 0
-20 -9 21 0
-20 9 -21 0
20 -9 21 0
20 9 -21 0
-21 -10 22 0
-21 10 -22 0
21 -10 -22 0
21 10 22 0
-22 -11 -23 0
-22 11 23 0
22 -11 -23 0
22 11 -23 0
-23 -12 -24 0
-23 12 24 0
23 -12 -24 0
23 12 24 0
-13 25 0
13 -25 0
-25 -14 26 0
-25 14 26 0
25 -14 -26 0
25 14 -26 0
-26 -15 27 0
-26 15 -27 0
26 -15 27 0
26 15 27 0
-27 -16 28 0
-27 16 -28 0
27 -16 -28 0
27 16 28 0
-28 -17 -29 0
-28 17 29 0
28 -17 -29 0
28 17 29 0
-29 -18 30 0
-29 18 -30 0
29 -18 30 0
29 18 30 0
-30 -19 31 0
-30 19 -31 0
30 -19 -31 0
30 19 -31 0
-31 -20 32 0
-31 20 -32 0
31 -20 32 0
31 20 32 0
-32 -21 -243 33 0
-32 -21 243 -33 0
-32 21 -244 33 0
-32 21 244 -33 0
32 -21 -245 33 0
32 -21 245 -33 0
32 21 -246 33 0
32 21 246 -33 0
-33 -22 34 0
-33 22 -34 0
33 -22 34 0
33 22 -34 0
-34 -23 35 0
-34 23 35 0
34 -23 35 0
34 23 -35 0
-35 -24 -36 0
-35 24 36 0
35 -24 -36 0
35 24 36 0
-25 37 0
25 -37 0
-37 -26 -38 0
-37 26 38 0
37 -26 -38 0
37 26 38 0
-38 -27 -39 0
-38 27 39 0
38 -27 39 0
38 27 39 0
-39 -28 -40 0
-39 28 40 0
39 -28 -40 0
39 28 -40 0
-40 -29 -41 0
-40 29 41 0
40 -29 -41 0
40 29 41 0
-41 -30 42 0
-41 30 -42 0
41 -30 42 0
41 30 -42 0
-42 -31 43 0
-42 31 -43 0
42 -31 43 0
42 31 43 0
-43 -32 44 0
-43 32 -44 0
43 -32 -44 0
43 32 44 0
-44 -33 -45 0
-44 33 -45 0
44 -33 -45 0
44 33 45 0
-45 -34 -46 0
-45 34 46 0
45 -34 46 0
45 34 -46 0
-46 -35 -297 47 0
-46 -35 297 -47 0
-46 35 -298 47 0
-46 35 298 -47 0
46 -35 -299 47 0
46 -35 299 -47 0
46 35 -300 47 0
46 35 300 -47 0
-47 -36 -48 0
-47 36 48 0
47 -36 48 0
47 36 48 0
-37 49 0
37 -49 0
-49 -38 50 0
-49 38 -50 0
49 -38 -50 0
49 38 -50 0
-50 -39 -51 0
-50 39 -51 0
50 -39 51 0
50 39 51 0
-51 -40 52 0
-51 40 -52 0
51 -40 52 0
51 40 -52 0
-52 -41 53 0
-52 41 53 0
52 -41 53 0
52 41 -53 0
-53 -42 54 0
-53 42 -54 0
53 -42 54 0
53 42 54 0
-54 -43 -55 0
-54 43 55 0
54 -43 -55 0
54 43 -55 0
-55 -44 56 0
-55 44 -56 0
55 -44 56 0
55 44 -56 0
-56 -45 57 0
-56 45 -57 0
56 -45 57 0
56 45 57 0
-57 -46 -58 0
-57 46 58 0
57 -46 -58 0
57 46 -58 0
-58 -47 59 0
-58 47 -59 0
58 -47 -59 0
58 47 -59 0
-59 -48 -60 0
-59 48 60 0
59 -48 -60 0
59 48 60 0
-49 -61 0
49 61 0
-61 -50 -62 0
-61 50 -62 0
61 -50 62 0
61 50 62 0
-62 -51 -63 0
-62 51 63 0
62 -51 -63 0
62 51 -63 0
-63 -52 -64 0
-63 52 64 0
63 -52 64 0
63 52 64 0
-64 -53 -65 0
-64 53 -65 0
64 -53 65 0
64 53 -65 0
-65 -54 66 0
-65 54 -66 0
65 -54 66 0
65 54 -66 0
-66 -55 67 0
-66 55 -67 0
66 -55 67 0
66 55 -67 0
-67 -56 68 0
-67 56 -68 0
67 -56 68 0
67 56 -68 0
-68 -57 69 0
-68 57 -69 0
68 -57 -69 0
68 57 69 0
-69 -58 70 0
-69 58 -70 0
69 -58 70 0
69 58 -70 0
-70 -59 -71 0
-70 59 71 0
70 -59 71 0
70 59 -71 0
-71 -60 72 0
-71 60 72 0
71 -60 72 0
71 60 -72 0
-61 -73 0
61 73 0
-73 -62 -74 0
-73 62 74 0
73 -62 74 0
73 62 74 0
-74 -63 -75 0
-74 63 75 0
74 -63 75 0
74 63 75 0
-75 -64 76 0
-75 64 -76 0
75 -64 -76 0
75 64 -76 0
-76 -65 77 0
-76 65 77 0
76 -65 77 0
76 65 -77 0
-77 -66 78 0
-77 66 -78 0
77 -66 78 0
77 66 -78 0
-78 -67 -79 0
-78 67 -79 0
78 -67 79 0
78 67 -79 0
-79 -68 -80 0
-79 68 -80 0
79 -68 80 0
79 68 80 0
-80 -69 81 0
-80 69 -81 0
80 -69 81 0
80 69 -81 0
-81 -70 -431 82 0
-81 -70 431 -82 0
-81 70 -432 82 0
-81 70 432 -82 0
81 -70 -433 82 0
81 -70 433 -82 0
81 70 -434 82 0
81 70 434 -82 0
-82 -71 83 0
-82 71 -83 0
82 -71 83 0
82 71 -83 0
-83 -72 84 0
-83 72 84 0
83 -72 -84 0
83 72 -84 0
-73 -85 0
73 85 0
-85 -74 -86 0
-85 74 86 0
85 -74 86 0
85 74 -86 0
-86 -75 -87 0
-86 75 87 0
86 -75 87 0
86 75 87 0
-87 -76 88 0
-87 76 -88 0
87 -76 -88 0
87 76 -88 0
-88 -77 89 0
-88 77 89 0
88 -77 -89 0
88 77 -89 0
-89 -78 90 0
-89 78 90 0
89 -78 -90 0
89 78 -90 0
-90 -79 -91 0
-90 79 -91 0
90 -79 91 0
90 79 -91 0
-91 -80 -92 0
-91 80 92 0
91 -80 -92 0
91 80 92 0
-92 -81 93 0
-92 81 -93 0
92 -81 -93 0
92 81 -93 0
-93 -82 94 0
-93 82 -94 0
93 -82 -94 0
93 82 94 0
-94 -83 -95 0
-94 83 95 0
94 -83 -95 0
94 83 -95 0
-95 -84 96 0
-95 84 96 0
95 -84 96 0
95 84 -96 0
-85 97 0
85 -97 0
-97 -86 -491 98 0
-97 -86 491 -98 0
-97 86 -492 98 0
-97 86 492 -98 0
97 -86 -493 98 0
97 -86 493 -98 0
97 86 -494 98 0
97 86 494 -98 0
-98 -87 -99 0
-98 87 -99 0
98 -87 -99 0
98 87 99 0
-99 -88 -100 0
-99 88 100 0
99 -88 -100 0
99 88 100 0
-100 -89 101 0
-100 89 -101 0
100 -89 -101 0
100 89 101 0
-101 -90 102 0
-101 90 102 0
101 -90 102 0
101 90 -102 0
-102 -91 -511 103 0
-102 -91 511 -103 0
-102 91 -512 103 0
-102 91 512 -103 0
102 -91 -513 103 0
102 -91 513 -103 0
102 91 -514 103 0
102 91 514 -103 0
-103 -92 -515 104 0
-103 -92 515 -104 0
-103 92 -516 104 0
-103 92 516 -104 0
103 -92 -517 104 0
103 -92 517 -104 0
103 92 -518 104 0
103 92 518 -104 0
-104 -93 105 0
-104 93 105 0
104 -93 -105 0
104 93 105 0
-105 -94 -106 0
-105 94 106 0
105 -94 -106 0
105 94 106 0
-106 -95 -527 107 0
-106 -95 527 -107 0
-106 95 -528 107 0
-106 95 528 -107 0
106 -95 -529 107 0
106 -95 529 -107 0
106 95 -530 107 0
106 95 530 -107 0
-107 -96 -108 0
-107 96 108 0
107 -96 -108 0
107 96 108 0
-97 109 0
97 -109 0
-109 -98 -110 0
-109 98 -110 0
109 -98 110 0
109 98 110 0
-110 -99 111 0
-110 99 111 0
110 -99 -111 0
110 99 111 0
-111 -100 -545 112 0
-111 -100 545 -112 0
-111 100 -546 112 0
-111 100 546 -112 0
111 -100 -547 112 0
111 -100 547 -112 0
111 100 -548 112 0
111 100 548 -112 0
-112 -101 -113 0
-112 101 -113 0
112 -101 113 0
112 101 -113 0
-113 -102 -114 0
-113 102 -114 0
113 -102 114 0
113 102 -114 0
-114 -103 -115 0
-114 103 115 0
114 -103 -115 0
114 103 115 0
-115 -104 -116 0
-115 104 -116 0
115 -104 116 0
115 104 116 0
-116 -105 -117 0
-116 105 -117 0
116 -105 -117 0
116 105 117 0
-117 -106 118 0
-117 106 -118 0
117 -106 118 0
117 106 118 0
-118 -107 119 0
-118 107 119 0
118 -107 -119 0
118 107 119 0
-119 -108 120 0
-119 108 120 0
119 -108 -120 0
119 108 -120 0
-109 -581 121 0
-109 581 -121 0
109 -582 121 0
109 582 -121 0
-121 -110 -122 0
-121 110 -122 0
121 -110 122 0
121 110 -122 0
-122 -111 -123 0
-122 111 123 0
122 -111 123 0
122 111 123 0
-123 -112 124 0
-123 112 -124 0
123 -112 -124 0
123 112 124 0
-124 -113 -595 125 0
-124 -113 595 -125 0
-124 113 -596 125 0
-124 113 596 -125 0
124 -113 -597 125 0
124 -113 597 -125 0
124 113 -598 125 0
124 113 598 -125 0
-125 -114 -599 126 0
-125 -114 599 -126 0
-125 114 -600 126 0
-125 114 600 -126 0
125 -114 -601 126 0
125 -114 601 -126 0
125 114 -602 126 0
125 114 602 -126 0
-126 -115 127 0
-126 115 127 0
126 -115 -127 0
126 115 127 0
-127 -116 -607 128 0
-127 -116 607 -128 0
-127 116 -608 128 0
-127 116 608 -128 0
127 -116 -609 128 0
127 -116 609 -128 0
127 116 -610 128 0
127 116 610 -128 0
-128 -117 129 0
-128 117 -129 0
128 -117 129 0
128 117 129 0
-129 -118 130 0
-129 118 -130 0
129 -118 -130 0
129 118 130 0
-130 -119 131 0
-130 119 131 0
130 -119 -131 0
130 119 -131 0
-131 -120 -132 0
-131 120 132 0
131 -120 -132 0
131 120 132 0
-121 -133 0
121 133 0
-133 -122 134 0
-133 122 -134 0
133 -122 -134 0
133 122 -134 0
-134 -123 -633 135 0
-134 -123 633 -135 0
-134 123 -634 135 0
-134 123 634 -135 0
134 -123 -635 135 0
134 -123 635 -135 0
134 123 -636 135 0
134 123 636 -135 0
-135 -124 -136 0
-135 124 -136 0
135 -124 -136 0
135 124 136 0
-136 -125 137 0
-136 125 137 0
136 -125 137 0
136 125 -137 0
-137 -126 -138 0
-137 126 -138 0
137 -126 -138 0
137 126 138 0
-138 -127 -139 0
-138 127 139 0
138 -127 -139 0
138 127 -139 0
-139 -128 140 0
-139 128 140 0
139 -128 -140 0
139 128 140 0
-140 -129 -141 0
-140 129 141 0
140 -129 141 0
140 129 141 0
-141 -130 -661 142 0
-141 -130 661 -142 0
-141 130 -662 142 0
-141 130 662 -142 0
141 -130 -663 142 0
141 -130 663 -142 0
141 130 -664 142 0
141 130 664 -142 0
-142 -131 143 0
-142 131 -143 0
142 -131 -143 0
142 131 -143 0
-143 -132 144 0
-143 132 -144 0
143 -132 144 0
143 132 144 0
144 0
