data/benchmarks/bayes/90-12-2-q.gr
p tw 672 561
55 66
67 68
99 100
88 100
127 607
116 607
70 82
8 9
40 41
29 41
92 515
100 101
11 23
121 133
41 42
73 74
62 74
103 511
133 134
44 56
70 432
14 15
3 15
74 75
106 107
95 107
122 133
82 433
15 16
47 48
36 48
107 108
96 108
18 30
128 140
21 32
80 81
69 81
140 141
113 124
102 514
91 514
129 141
10 22
81 82
54 65
102 114
103 515
22 23
43 55
106 529
95 529
114 115
87 98
103 115
55 56
28 39
76 88
88 99
47 299
126 601
29 40
77 89
2 13
62 73
110 122
70 431
3 14
51 63
35 46
95 106
36 47
128 139
21 22
69 80
113 114
102 513
91 513
112 545
10 21
54 55
102 113
43 54
87 88
35 297
114 599
28 29
17 29
81 431
76 87
88 89
109 121
47 298
126 600
29 30
61 62
50 62
121 122
2 3
62 63
94 95
83 95
110 121
3 4
125 595
35 36
24 36
95 96
84 96
127 128
116 128
19 195
8 195
9 20
68 69
57 69
128 129
117 129
20 196
69 70
42 53
58 70
101 102
90 102
10 11
31 43
102 103
75 86
91 103
123 135
142 661
43 44
16 27
32 44
64 76
125 599
135 136
108 119
124 136
5 17
17 28
98 492
76 77
65 77
97 109
47 297
6 18
21 245
128 609
111 547
100 547
50 61
98 110
82 93
104 517
33 246
39 51
23 34
112 548
83 94
131 143
115 126
24 35
72 84
56 67
116 127
9 10
35 300
19 194
8 194
46 297
114 602
57 68
135 634
89 100
81 434
30 41
42 43
90 101
134 135
31 42
113 597
75 76
141 664
123 134
16 17
125 598
64 75
5 16
49 50
38 50
98 491
109 110
130 142
21 244
128 608
50 51
82 83
71 83
111 546
100 546
142 143
104 516
23 24
12 24
130 663
83 84
115 116
104 116
134 633
142 664
56 57
45 57
97 494
86 494
116 117
105 117
124 597
57 58
46 58
89 90
78 90
135 633
109 581
30 31
19 31
90 91
63 74
79 91
111 123
121 582
31 32
4 15
20 32
52 64
141 142
113 596
32 244
123 124
112 124
64 65
53 65
85 97
141 663
123 636
107 530
5 6
26 38
38 49
97 98
70 81
46 300
86 98
118 130
130 141
27 39
11 22
128 607
71 82
119 131
104 515
12 23
130 662
60 72
44 55
104 115
1 13
122 123
45 56
93 105
82 432
124 596
96 107
18 29
127 610
116 610
78 89
126 138
92 518
19 30
129 140
63 64
111 122
121 581
4 5
25 37
103 514
52 63
32 243
134 636
106 528
95 528
103 114
37 38
141 662
107 529
26 37
70 71
59 71
118 129
130 131
77 88
11 12
92 104
44 45
33 45
103 518
125 137
51 62
66 78
82 431
137 138
124 595
18 19
7 19
10 164
99 111
129 130
40 52
102 512
91 512
111 112
100 112
132 144
73 85
103 513
70 434
103 104
14 26
106 527
95 527
85 86
106 118
141 661
136 137
47 59
59 70
118 119
107 119
126 599
77 78
80 92
92 103
110 111
33 44
81 93
51 52
103 517
125 136
84 95
143 144
66 77
114 126
117 128
55 67
10 163
20 195
99 110
58 69
40 51
102 511
91 511
132 143
91 102
25 26
103 512
32 43
70 433
14 25
124 135
17 18
106 117
65 76
47 58
6 17
98 109
21 33
80 91
33 245
113 125
39 50
112 547
131 142
54 66
13 25
72 83
125 602
87 99
35 299
19 193
8 193
114 601
117 118
28 40
81 433
47 300
120 132
20 194
58 59
126 602
61 73
91 92
2 14
94 106
32 33
125 597
124 125
35 47
127 139
65 66
68 80
6 7
21 243
139 140
98 99
111 545
100 545
101 113
39 40
33 244
112 546
131 132
142 663
125 601
97 493
86 493
105 116
35 298
46 57
114 600
98 494
81 432
120 131
20 193
79 90
20 31
113 595
112 123
94 105
53 64
125 596
123 635
38 39
127 138
19 196
8 196
46 299
9 21
86 97
135 636
68 79
27 38
71 72
119 130
42 54
101 112
33 243
60 71
130 661
104 105
75 87
13 14
45 46
34 46
142 662
93 104
105 106
125 600
16 28
97 492
86 492
108 120
46 47
78 79
67 79
127 609
116 609
126 137
98 493
138 139
49 61
19 20
8 20
92 517
79 80
21 246
128 610
111 548
100 548
82 94
20 21
52 53
41 53
104 518
112 113
23 35
134 635
115 127
53 54
74 86
56 68
123 634
11 164
26 27
15 27
107 528
86 87
46 298
135 635
89 101
27 28
48 60
119 120
30 42
113 598
32 246
1 2
22 34
34 45
93 94
97 491
86 491
7 18
67 78
126 127
127 608
116 608
8 19
92 516
100 111
41 52
130 664
134 634
74 85
122 134
82 434
123 633
124 598
11 163
15 26
107 527
59 60
107 118
109 582
48 59
92 93
63 75
33 34
81 92
4 16
103 516
125 126
32 245
22 33
34 35
66 67
106 530
95 530
114 125
37 49
7 8
